\ This file has been generated by DOcplex
\ ENCODING=ISO-8859-1
\Problem name: random_problem.lp

Minimize
 obj: - 404 x0 - 202 x1 - 101 x2 + 1440 x3 + 720 x4 + 360 x5 + 2572 x6 + 1286 x7
      + 643 x8 + [ 3072 x0^2 + 3072 x0*x1 + 1536 x0*x2 + 1856 x0*x3 + 928 x0*x4
      + 464 x0*x5 + 2752 x0*x6 + 1376 x0*x7 + 688 x0*x8 + 768 x1^2 + 768 x1*x2
      + 928 x1*x3 + 464 x1*x4 + 232 x1*x5 + 1376 x1*x6 + 688 x1*x7 + 344 x1*x8
      + 192 x2^2 + 464 x2*x3 + 232 x2*x4 + 116 x2*x5 + 688 x2*x6 + 344 x2*x7
      + 172 x2*x8 + 8288 x3^2 + 8288 x3*x4 + 4144 x3*x5 + 1600 x3*x6 + 800 x3*x7
      + 400 x3*x8 + 2072 x4^2 + 2072 x4*x5 + 800 x4*x6 + 400 x4*x7 + 200 x4*x8
      + 518 x5^2 + 400 x5*x6 + 200 x5*x7 + 100 x5*x8 + 2368 x6^2 + 2368 x6*x7
      + 1184 x6*x8 + 592 x7^2 + 592 x7*x8 + 148 x8^2 ]/2
Subject To
 c0: 4 x0 + 2 x1 + x2 + 4 x3 + 2 x4 + x5 + 4 x6 + 2 x7 + x8 = 7

Bounds
 0 <= x0 <= 1
 0 <= x1 <= 1
 0 <= x2 <= 1
 0 <= x3 <= 1
 0 <= x4 <= 1
 0 <= x5 <= 1
 0 <= x6 <= 1
 0 <= x7 <= 1
 0 <= x8 <= 1

Binaries
 x0 x1 x2 x3 x4 x5 x6 x7 x8
End
